7
0, 390, 921, 718, 920, 642, 747
390, 0, 531, 425, 533, 284, 692
921, 531, 0, 422, 47, 321, 888
718, 425, 422, 0, 386, 185, 466
920, 533, 47, 386, 0, 302, 851
642, 284, 321, 185, 302, 0, 609
747, 692, 888, 466, 851, 609, 0
